p tw 154 171
1 2
2 67
3 14
4 146
5 6
6 7
6 11
7 8
8 9
9 10
10 61
11 12
12 13
13 146
14 25
15 16
16 17
17 18
18 19
18 20
19 20
20 21
21 22
21 27
22 23
23 24
24 26
25 36
26 61
27 28
28 29
29 30
30 31
31 32
31 35
32 33
33 34
34 29
35 37
36 47
36 65
37 38
38 39
38 50
39 40
40 41
41 42
42 43
43 44
44 45
45 46
46 48
47 58
48 49
49 59
50 51
51 52
52 53
53 54
54 55
55 56
56 57
57 59
58 63
58 65
59 60
60 61
61 62
63 64
64 65
64 69
65 66
66 68
67 78
68 61
69 70
70 71
71 72
71 73
72 61
73 74
74 75
75 76
76 77
77 79
78 89
79 80
80 81
80 85
81 82
82 83
83 84
84 61
85 86
86 87
87 88
87 97
88 90
89 100
90 91
91 92
92 93
93 94
93 102
94 95
95 96
96 91
97 98
98 99
99 101
100 111
101 104
102 103
103 104
104 105
105 106
106 107
106 116
107 108
108 109
109 110
110 112
111 122
112 113
112 120
113 114
114 115
115 109
116 117
117 118
118 119
119 123
120 121
121 123
122 133
123 124
124 125
125 126
125 129
126 127
127 128
128 134
129 130
130 131
131 132
132 134
133 144
134 135
135 136
136 137
136 140
137 138
138 139
139 143
140 141
141 142
142 143
143 145
144 3
145 146
146 147
147 148
148 149
149 150
150 151
150 15
151 152
152 153
153 154
153 5
154 4
